0 1
0 4
0 19
0 49
0 99
1 2
1 24
2 3
2 12
2 66
2 74
2 83
2 93
3 4
3 5
3 10
3 27
3 57
3 62
4 5
4 16
4 31
4 49
4 97
5 6
5 33
5 75
6 7
6 75
6 83
7 8
7 26
7 32
7 46
7 73
8 9
8 14
9 10
9 56
9 79
10 11
10 32
11 12
11 28
11 92
12 13
12 58
12 84
13 14
13 29
13 30
13 40
13 95
13 96
14 15
14 65
14 95
15 16
15 78
16 17
16 20
16 66
17 18
17 66
17 85
18 19
18 43
19 20
19 31
19 60
20 21
20 52
21 22
22 23
22 46
23 24
23 74
23 94
23 96
24 25
25 26
26 27
26 93
26 97
27 28
27 87
28 29
29 30
29 75
29 81
29 87
29 91
30 31
31 32
31 34
31 86
32 33
32 47
32 87
33 34
34 35
34 75
35 36
35 54
36 37
36 43
37 38
37 46
38 39
39 40
39 52
39 57
39 68
40 41
41 42
41 65
42 43
43 44
43 92
44 45
44 78
45 46
46 47
46 61
46 87
46 90
47 48
47 88
48 49
48 82
49 50
50 51
50 62
51 52
51 96
52 53
53 54
53 67
53 77
54 55
54 65
54 91
55 56
55 93
56 57
57 58
58 59
59 60
60 61
61 62
62 63
62 65
63 64
64 65
65 66
65 90
66 67
66 85
66 88
67 68
67 96
68 69
69 70
70 71
70 98
71 72
71 89
72 73
73 74
74 75
74 99
75 76
75 78
76 77
77 78
77 94
78 79
79 80
79 90
80 81
80 95
81 82
82 83
83 84
84 85
84 87
85 86
86 87
87 88
88 89
89 90
90 91
91 92
92 93
93 94
94 95
95 96
96 97
97 98
98 99
